p cnf 152 268               
2 56 0
1 56 0
-2 -1 -56 0
56 -68 0
-1 57 0
-2 57 0
1 2 -57 0
57 58 0
3 58 0
-57 -3 -58 0
58 -68 0
-3 59 0
-57 59 0
3 57 -59 0
59 60 0
4 60 0
-59 -4 -60 0
60 -68 0
-4 61 0
-59 61 0
4 59 -61 0
61 62 0
5 62 0
-61 -5 -62 0
62 -68 0
-5 63 0
-61 63 0
5 61 -63 0
63 64 0
6 64 0
-63 -6 -64 0
64 -68 0
-6 65 0
-63 65 0
6 63 -65 0
65 66 0
7 66 0
-65 -7 -66 0
66 -68 0
-7 67 0
-65 67 0
7 65 -67 0
67 -68 0
-56 -58 -60 -62 -64 -66 -67 68 0
-68 1 -69 0
68 15 -69 0
1 15 -69 0
69 76 0
-1 76 0
-68 2 -70 0
68 16 -70 0
2 16 -70 0
70 77 0
-2 77 0
-68 3 -71 0
68 17 -71 0
3 17 -71 0
71 78 0
-3 78 0
-68 4 -72 0
68 18 -72 0
4 18 -72 0
72 79 0
-4 79 0
-68 5 -73 0
68 19 -73 0
5 19 -73 0
73 80 0
-5 80 0
-68 6 -74 0
68 20 -74 0
6 20 -74 0
74 81 0
-6 81 0
-68 7 -75 0
68 21 -75 0
7 21 -75 0
75 82 0
-7 82 0
-76 -77 -78 -79 -80 -81 -82 83 0
-83 -84 0
-9 -8 -22 0
22 -34 0
-8 23 0
-9 23 0
8 9 -23 0
-23 -10 -24 0
24 -34 0
-10 25 0
-23 25 0
10 23 -25 0
-25 -11 -26 0
26 -34 0
-11 27 0
-25 27 0
11 25 -27 0
-27 -12 -28 0
28 -34 0
-12 29 0
-27 29 0
12 27 -29 0
-29 -13 -30 0
30 -34 0
-13 31 0
-29 31 0
13 29 -31 0
-31 -14 -32 0
32 -34 0
14 31 -33 0
33 -34 0
34 -84 0
-16 -15 -35 0
35 -47 0
-15 36 0
-16 36 0
15 16 -36 0
-36 -17 -37 0
37 -47 0
-17 38 0
-36 38 0
17 36 -38 0
-38 -18 -39 0
39 -47 0
-18 40 0
-38 40 0
18 38 -40 0
-40 -19 -41 0
41 -47 0
-19 42 0
-40 42 0
19 40 -42 0
-42 -20 -43 0
43 -47 0
-20 44 0
-42 44 0
20 42 -44 0
-44 -21 -45 0
45 -47 0
21 44 -46 0
46 -47 0
47 -84 0
-1 8 -48 0
1 -8 -48 0
8 -8 -48 0
48 -55 0
-2 9 -49 0
2 -9 -49 0
9 -9 -49 0
49 -55 0
-3 10 -50 0
3 -10 -50 0
10 -10 -50 0
50 -55 0
-4 11 -51 0
4 -11 -51 0
11 -11 -51 0
51 -55 0
-5 12 -52 0
5 -12 -52 0
12 -12 -52 0
52 -55 0
-6 13 -53 0
6 -13 -53 0
13 -13 -53 0
53 -55 0
-7 14 -54 0
7 -14 -54 0
14 -14 -54 0
54 -55 0
55 -84 0
-1 2 -85 0
85 -95 0
-1 -2 86 0
1 2 86 0
-2 2 86 0
-8 9 -87 0
-86 87 -88 0
88 -95 0
-8 -9 89 0
8 9 89 0
-9 9 89 0
-86 -89 90 0
-15 16 -91 0
-90 91 -92 0
92 -95 0
95 -151 0
-2 3 -96 0
96 -106 0
-2 -3 97 0
2 3 97 0
-3 3 97 0
-9 10 -98 0
-97 98 -99 0
99 -106 0
-9 -10 100 0
9 10 100 0
-10 10 100 0
-97 -100 101 0
-16 17 -102 0
-101 102 -103 0
103 -106 0
106 -151 0
-3 4 -107 0
107 -117 0
-3 -4 108 0
3 4 108 0
-4 4 108 0
-10 11 -109 0
-108 109 -110 0
110 -117 0
-10 -11 111 0
10 11 111 0
-11 11 111 0
-108 -111 112 0
-17 18 -113 0
-112 113 -114 0
114 -117 0
117 -151 0
-4 5 -118 0
118 -128 0
-4 -5 119 0
4 5 119 0
-5 5 119 0
-11 12 -120 0
-119 120 -121 0
121 -128 0
-11 -12 122 0
11 12 122 0
-12 12 122 0
-119 -122 123 0
-18 19 -124 0
-123 124 -125 0
125 -128 0
128 -151 0
-5 6 -129 0
129 -139 0
-5 -6 130 0
5 6 130 0
-6 6 130 0
-12 13 -131 0
-130 131 -132 0
132 -139 0
-12 -13 133 0
12 13 133 0
-13 13 133 0
-130 -133 134 0
-19 20 -135 0
-134 135 -136 0
136 -139 0
139 -151 0
-6 7 -140 0
140 -150 0
-6 -7 141 0
6 7 141 0
-7 7 141 0
-13 14 -142 0
-141 142 -143 0
143 -150 0
-13 -14 144 0
13 14 144 0
-14 14 144 0
-141 -144 145 0
-20 21 -146 0
-145 146 -147 0
147 -150 0
150 -151 0
84 0
151 0
